(set-logic QF_UF)
(declare-fun A0 () Bool)
(declare-fun A1 () Bool)
(declare-fun A2 () Bool)
(declare-fun A3 () Bool)
(declare-fun A4 () Bool)
(declare-fun A5 () Bool)
(declare-fun A6 () Bool)
(declare-fun A7 () Bool)
(declare-fun A8 () Bool)
(declare-fun A9 () Bool)
(declare-fun A10 () Bool)
(declare-fun A11 () Bool)
(declare-fun A12 () Bool)
(declare-fun A13 () Bool)
(declare-fun A14 () Bool)
(declare-fun A15 () Bool)
(declare-fun A16 () Bool)
(declare-fun A17 () Bool)
(declare-fun A18 () Bool)
(declare-fun A19 () Bool)
(declare-fun A20 () Bool)
(declare-fun A21 () Bool)
(declare-fun A22 () Bool)
(declare-fun A23 () Bool)
(declare-fun A24 () Bool)
(assert (let ((.def_0 (not A5))) (let ((.def_1 (and A20 .def_0))) (let ((.def_2 (not .def_1))) (let ((.def_3 (not A15))) (let ((.def_4 (not A16))) (let ((.def_5 (and .def_4 .def_3))) (let ((.def_6 (not .def_5))) (let ((.def_7 (or .def_6 .def_2))) (let ((.def_8 (not A20))) (let ((.def_9 (= .def_8 A17))) (let ((.def_10 (not .def_9))) (let ((.def_11 (= A22 A11))) (let ((.def_12 (or .def_11 .def_10))) (let ((.def_13 (not .def_12))) (let ((.def_14 (and .def_13 .def_7))) (let ((.def_15 (not .def_14))) (let ((.def_16 (not A0))) (let ((.def_17 (and A23 .def_16))) (let ((.def_18 (not .def_17))) (let ((.def_19 (not A1))) (let ((.def_20 (not A18))) (let ((.def_21 (and .def_20 .def_19))) (let ((.def_22 (not .def_21))) (let ((.def_23 (and .def_22 .def_18))) (let ((.def_24 (not A3))) (let ((.def_25 (or .def_8 .def_24))) (let ((.def_26 (not .def_25))) (let ((.def_27 (not A4))) (let ((.def_28 (and .def_19 .def_27))) (let ((.def_29 (and .def_28 .def_26))) (let ((.def_30 (not .def_29))) (let ((.def_31 (or .def_30 .def_23))) (let ((.def_32 (not .def_31))) (let ((.def_33 (or .def_32 .def_15))) (let ((.def_34 (not .def_33))) (let ((.def_35 (or .def_27 A20))) (let ((.def_36 (and A15 A11))) (let ((.def_37 (and .def_36 .def_35))) (let ((.def_38 (and A19 .def_27))) (let ((.def_39 (not A19))) (let ((.def_40 (= .def_39 A15))) (let ((.def_41 (not .def_40))) (let ((.def_42 (and .def_41 .def_38))) (let ((.def_43 (not .def_42))) (let ((.def_44 (and .def_43 .def_37))) (let ((.def_45 (not A22))) (let ((.def_46 (or A22 .def_45))) (let ((.def_47 (not .def_46))) (let ((.def_48 (or .def_8 .def_45))) (let ((.def_49 (and .def_48 .def_47))) (let ((.def_50 (or A24 .def_20))) (let ((.def_51 (and A0 .def_20))) (let ((.def_52 (or .def_51 .def_50))) (let ((.def_53 (or .def_52 .def_49))) (let ((.def_54 (not .def_53))) (let ((.def_55 (or .def_54 .def_44))) (let ((.def_56 (not .def_55))) (let ((.def_57 (and .def_56 .def_34))) (let ((.def_58 (not A8))) (let ((.def_59 (= A17 .def_58))) (let ((.def_60 (not .def_59))) (let ((.def_61 (and .def_16 A16))) (let ((.def_62 (or .def_61 .def_60))) (let ((.def_63 (not .def_62))) (let ((.def_64 (not A6))) (let ((.def_65 (not A13))) (let ((.def_66 (or .def_65 .def_64))) (let ((.def_67 (not .def_66))) (let ((.def_68 (not A12))) (let ((.def_69 (and .def_8 .def_68))) (let ((.def_70 (not .def_69))) (let ((.def_71 (and .def_70 .def_67))) (let ((.def_72 (or .def_71 .def_63))) (let ((.def_73 (or .def_64 A17))) (let ((.def_74 (not .def_73))) (let ((.def_75 (or A14 .def_39))) (let ((.def_76 (not .def_75))) (let ((.def_77 (= .def_76 .def_74))) (let ((.def_78 (not .def_77))) (let ((.def_79 (and A4 A8))) (let ((.def_80 (not A9))) (let ((.def_81 (or A1 .def_80))) (let ((.def_82 (not .def_81))) (let ((.def_83 (or .def_82 .def_79))) (let ((.def_84 (and .def_83 .def_78))) (let ((.def_85 (and .def_84 .def_72))) (let ((.def_86 (not A10))) (let ((.def_87 (and .def_86 .def_45))) (let ((.def_88 (and .def_19 .def_86))) (let ((.def_89 (not .def_88))) (let ((.def_90 (and .def_89 .def_87))) (let ((.def_91 (not A23))) (let ((.def_92 (and .def_91 A4))) (let ((.def_93 (or A19 A4))) (let ((.def_94 (not .def_93))) (let ((.def_95 (and .def_94 .def_92))) (let ((.def_96 (and .def_95 .def_90))) (let ((.def_97 (not .def_96))) (let ((.def_98 (or .def_39 A17))) (let ((.def_99 (= A18 .def_80))) (let ((.def_100 (not .def_99))) (let ((.def_101 (or .def_100 .def_98))) (let ((.def_102 (or A3 A6))) (let ((.def_103 (and A15 A4))) (let ((.def_104 (not .def_103))) (let ((.def_105 (= .def_104 .def_102))) (let ((.def_106 (and .def_105 .def_101))) (let ((.def_107 (not .def_106))) (let ((.def_108 (and .def_107 .def_97))) (let ((.def_109 (or .def_108 .def_85))) (let ((.def_110 (and .def_109 .def_57))) (let ((.def_111 (not .def_110))) (let ((.def_112 (or .def_20 .def_68))) (let ((.def_113 (not .def_112))) (let ((.def_114 (and A17 A24))) (let ((.def_115 (or .def_114 .def_113))) (let ((.def_116 (and A15 .def_8))) (let ((.def_117 (and A13 A6))) (let ((.def_118 (or .def_117 .def_116))) (let ((.def_119 (not .def_118))) (let ((.def_120 (and .def_119 .def_115))) (let ((.def_121 (and A4 .def_91))) (let ((.def_122 (or A22 .def_39))) (let ((.def_123 (not .def_122))) (let ((.def_124 (and .def_123 .def_121))) (let ((.def_125 (not .def_124))) (let ((.def_126 (and .def_86 .def_3))) (let ((.def_127 (and A19 .def_8))) (let ((.def_128 (or .def_127 .def_126))) (let ((.def_129 (not .def_128))) (let ((.def_130 (or .def_129 .def_125))) (let ((.def_131 (not .def_130))) (let ((.def_132 (or .def_131 .def_120))) (let ((.def_133 (= .def_39 A23))) (let ((.def_134 (not .def_133))) (let ((.def_135 (and .def_16 A5))) (let ((.def_136 (not .def_135))) (let ((.def_137 (or .def_136 .def_134))) (let ((.def_138 (not .def_137))) (let ((.def_139 (or A21 .def_16))) (let ((.def_140 (or .def_27 A7))) (let ((.def_141 (not .def_140))) (let ((.def_142 (and .def_141 .def_139))) (let ((.def_143 (and .def_142 .def_138))) (let ((.def_144 (not .def_143))) (let ((.def_145 (not A21))) (let ((.def_146 (and .def_86 .def_145))) (let ((.def_147 (not .def_146))) (let ((.def_148 (not A11))) (let ((.def_149 (and .def_148 A2))) (let ((.def_150 (or .def_149 .def_147))) (let ((.def_151 (not .def_150))) (let ((.def_152 (and A17 A6))) (let ((.def_153 (and A0 A18))) (let ((.def_154 (not .def_153))) (let ((.def_155 (and .def_154 .def_152))) (let ((.def_156 (not .def_155))) (let ((.def_157 (and .def_156 .def_151))) (let ((.def_158 (not .def_157))) (let ((.def_159 (or .def_158 .def_144))) (let ((.def_160 (or .def_159 .def_132))) (let ((.def_161 (not .def_160))) (let ((.def_162 (and A17 .def_24))) (let ((.def_163 (not .def_162))) (let ((.def_164 (or A2 .def_27))) (let ((.def_165 (and .def_164 .def_163))) (let ((.def_166 (not .def_165))) (let ((.def_167 (not A17))) (let ((.def_168 (or A22 .def_167))) (let ((.def_169 (not .def_168))) (let ((.def_170 (or .def_19 A23))) (let ((.def_171 (not .def_170))) (let ((.def_172 (and .def_171 .def_169))) (let ((.def_173 (and .def_172 .def_166))) (let ((.def_174 (and .def_27 .def_8))) (let ((.def_175 (or A16 A9))) (let ((.def_176 (or .def_175 .def_174))) (let ((.def_177 (and A20 A20))) (let ((.def_178 (not .def_177))) (let ((.def_179 (and .def_45 A5))) (let ((.def_180 (not .def_179))) (let ((.def_181 (or .def_180 .def_178))) (let ((.def_182 (or .def_181 .def_176))) (let ((.def_183 (= .def_182 .def_173))) (let ((.def_184 (or .def_68 .def_86))) (let ((.def_185 (not .def_184))) (let ((.def_186 (or A18 A19))) (let ((.def_187 (and .def_186 .def_185))) (let ((.def_188 (not .def_187))) (let ((.def_189 (or A21 .def_64))) (let ((.def_190 (and A24 .def_24))) (let ((.def_191 (or .def_190 .def_189))) (let ((.def_192 (not .def_191))) (let ((.def_193 (or .def_192 .def_188))) (let ((.def_194 (not .def_193))) (let ((.def_195 (and A21 A18))) (let ((.def_196 (not .def_195))) (let ((.def_197 (or A19 .def_3))) (let ((.def_198 (not .def_197))) (let ((.def_199 (and .def_198 .def_196))) (let ((.def_200 (or .def_167 A3))) (let ((.def_201 (or .def_91 A8))) (let ((.def_202 (and .def_201 .def_200))) (let ((.def_203 (not .def_202))) (let ((.def_204 (or .def_203 .def_199))) (let ((.def_205 (not .def_204))) (let ((.def_206 (and .def_205 .def_194))) (let ((.def_207 (or .def_206 .def_183))) (let ((.def_208 (not .def_207))) (let ((.def_209 (or .def_208 .def_161))) (let ((.def_210 (or .def_209 .def_111))) (let ((.def_211 (or .def_19 A19))) (let ((.def_212 (or A17 .def_4))) (let ((.def_213 (or .def_212 .def_211))) (let ((.def_214 (not .def_213))) (let ((.def_215 (and A10 .def_8))) (let ((.def_216 (= .def_91 .def_148))) (let ((.def_217 (not .def_216))) (let ((.def_218 (or .def_217 .def_215))) (let ((.def_219 (and .def_218 .def_214))) (let ((.def_220 (or A15 A5))) (let ((.def_221 (and A16 A13))) (let ((.def_222 (not .def_221))) (let ((.def_223 (= .def_222 .def_220))) (let ((.def_224 (or A17 .def_80))) (let ((.def_225 (not .def_224))) (let ((.def_226 (not A2))) (let ((.def_227 (or .def_226 A10))) (let ((.def_228 (and .def_227 .def_225))) (let ((.def_229 (not .def_228))) (let ((.def_230 (or .def_229 .def_223))) (let ((.def_231 (not .def_230))) (let ((.def_232 (or .def_231 .def_219))) (let ((.def_233 (and A24 A10))) (let ((.def_234 (and A20 .def_91))) (let ((.def_235 (not .def_234))) (let ((.def_236 (or .def_235 .def_233))) (let ((.def_237 (= A16 A11))) (let ((.def_238 (or .def_3 A15))) (let ((.def_239 (or .def_238 .def_237))) (let ((.def_240 (not .def_239))) (let ((.def_241 (= .def_240 .def_236))) (let ((.def_242 (not .def_241))) (let ((.def_243 (or .def_80 .def_27))) (let ((.def_244 (or .def_148 .def_68))) (let ((.def_245 (and .def_244 .def_243))) (let ((.def_246 (not .def_245))) (let ((.def_247 (and A0 .def_3))) (let ((.def_248 (not A14))) (let ((.def_249 (and .def_4 .def_248))) (let ((.def_250 (and .def_249 .def_247))) (let ((.def_251 (not .def_250))) (let ((.def_252 (and .def_251 .def_246))) (let ((.def_253 (not .def_252))) (let ((.def_254 (= .def_253 .def_242))) (let ((.def_255 (not .def_254))) (let ((.def_256 (and .def_255 .def_232))) (let ((.def_257 (not .def_256))) (let ((.def_258 (or A22 A18))) (let ((.def_259 (not .def_258))) (let ((.def_260 (not A7))) (let ((.def_261 (and A23 .def_260))) (let ((.def_262 (or .def_261 .def_259))) (let ((.def_263 (not .def_262))) (let ((.def_264 (or A13 .def_167))) (let ((.def_265 (not .def_264))) (let ((.def_266 (or .def_0 A23))) (let ((.def_267 (= .def_266 .def_265))) (let ((.def_268 (not .def_267))) (let ((.def_269 (or .def_268 .def_263))) (let ((.def_270 (and .def_19 .def_226))) (let ((.def_271 (and .def_86 .def_65))) (let ((.def_272 (or .def_271 .def_270))) (let ((.def_273 (not .def_272))) (let ((.def_274 (= A6 A10))) (let ((.def_275 (not .def_274))) (let ((.def_276 (not A24))) (let ((.def_277 (or .def_276 .def_19))) (let ((.def_278 (not .def_277))) (let ((.def_279 (and .def_278 .def_275))) (let ((.def_280 (and .def_279 .def_273))) (let ((.def_281 (or .def_280 .def_269))) (let ((.def_282 (or .def_86 .def_226))) (let ((.def_283 (or .def_64 A14))) (let ((.def_284 (or .def_283 .def_282))) (let ((.def_285 (not .def_284))) (let ((.def_286 (= A20 A7))) (let ((.def_287 (not .def_286))) (let ((.def_288 (and .def_226 .def_167))) (let ((.def_289 (not .def_288))) (let ((.def_290 (or .def_289 .def_287))) (let ((.def_291 (not .def_290))) (let ((.def_292 (and .def_291 .def_285))) (let ((.def_293 (not .def_292))) (let ((.def_294 (and .def_39 A23))) (let ((.def_295 (not .def_294))) (let ((.def_296 (or .def_86 .def_8))) (let ((.def_297 (not .def_296))) (let ((.def_298 (= .def_297 .def_295))) (let ((.def_299 (or .def_260 A0))) (let ((.def_300 (not .def_299))) (let ((.def_301 (and A2 A1))) (let ((.def_302 (not .def_301))) (let ((.def_303 (and .def_302 .def_300))) (let ((.def_304 (and .def_303 .def_298))) (let ((.def_305 (or .def_304 .def_293))) (let ((.def_306 (not .def_305))) (let ((.def_307 (and .def_306 .def_281))) (let ((.def_308 (and .def_307 .def_257))) (let ((.def_309 (not .def_308))) (let ((.def_310 (and A14 .def_276))) (let ((.def_311 (not .def_310))) (let ((.def_312 (and .def_167 .def_19))) (let ((.def_313 (and .def_312 .def_311))) (let ((.def_314 (not .def_313))) (let ((.def_315 (and .def_0 .def_145))) (let ((.def_316 (not .def_315))) (let ((.def_317 (and .def_20 .def_24))) (let ((.def_318 (not .def_317))) (let ((.def_319 (and .def_318 .def_316))) (let ((.def_320 (not .def_319))) (let ((.def_321 (and .def_320 .def_314))) (let ((.def_322 (not .def_321))) (let ((.def_323 (or A11 .def_148))) (let ((.def_324 (and A17 A20))) (let ((.def_325 (or .def_324 .def_323))) (let ((.def_326 (or A2 A5))) (let ((.def_327 (or A15 .def_0))) (let ((.def_328 (or .def_327 .def_326))) (let ((.def_329 (not .def_328))) (let ((.def_330 (= .def_329 .def_325))) (let ((.def_331 (and .def_330 .def_322))) (let ((.def_332 (not .def_331))) (let ((.def_333 (or .def_145 .def_24))) (let ((.def_334 (and A22 .def_45))) (let ((.def_335 (and .def_334 .def_333))) (let ((.def_336 (not .def_335))) (let ((.def_337 (and A7 A0))) (let ((.def_338 (not .def_337))) (let ((.def_339 (and .def_0 A9))) (let ((.def_340 (not .def_339))) (let ((.def_341 (or .def_340 .def_338))) (let ((.def_342 (not .def_341))) (let ((.def_343 (= .def_342 .def_336))) (let ((.def_344 (not .def_343))) (let ((.def_345 (and .def_16 .def_19))) (let ((.def_346 (not .def_345))) (let ((.def_347 (and .def_91 A14))) (let ((.def_348 (= .def_347 .def_346))) (let ((.def_349 (not .def_348))) (let ((.def_350 (and .def_20 .def_45))) (let ((.def_351 (not .def_350))) (let ((.def_352 (or A0 A20))) (let ((.def_353 (not .def_352))) (let ((.def_354 (and .def_353 .def_351))) (let ((.def_355 (and .def_354 .def_349))) (let ((.def_356 (not .def_355))) (let ((.def_357 (and .def_356 .def_344))) (let ((.def_358 (and .def_357 .def_332))) (let ((.def_359 (not .def_358))) (let ((.def_360 (or .def_3 .def_24))) (let ((.def_361 (not .def_360))) (let ((.def_362 (or A17 A11))) (let ((.def_363 (or .def_362 .def_361))) (let ((.def_364 (and A2 .def_58))) (let ((.def_365 (not .def_364))) (let ((.def_366 (and A2 .def_167))) (let ((.def_367 (not .def_366))) (let ((.def_368 (and .def_367 .def_365))) (let ((.def_369 (= .def_368 .def_363))) (let ((.def_370 (not .def_369))) (let ((.def_371 (and .def_226 .def_3))) (let ((.def_372 (or A18 A21))) (let ((.def_373 (and .def_372 .def_371))) (let ((.def_374 (and A0 .def_91))) (let ((.def_375 (not .def_374))) (let ((.def_376 (or A13 A11))) (let ((.def_377 (= .def_376 .def_375))) (let ((.def_378 (and .def_377 .def_373))) (let ((.def_379 (or .def_378 .def_370))) (let ((.def_380 (or A10 .def_64))) (let ((.def_381 (not .def_380))) (let ((.def_382 (and A11 A14))) (let ((.def_383 (not .def_382))) (let ((.def_384 (and .def_383 .def_381))) (let ((.def_385 (and .def_16 A23))) (let ((.def_386 (not .def_385))) (let ((.def_387 (and A0 .def_4))) (let ((.def_388 (not .def_387))) (let ((.def_389 (or .def_388 .def_386))) (let ((.def_390 (= .def_389 .def_384))) (let ((.def_391 (or A5 A9))) (let ((.def_392 (or .def_16 .def_27))) (let ((.def_393 (not .def_392))) (let ((.def_394 (or .def_393 .def_391))) (let ((.def_395 (not .def_394))) (let ((.def_396 (or .def_58 .def_65))) (let ((.def_397 (or A3 A0))) (let ((.def_398 (not .def_397))) (let ((.def_399 (or .def_398 .def_396))) (let ((.def_400 (not .def_399))) (let ((.def_401 (or .def_400 .def_395))) (let ((.def_402 (not .def_401))) (let ((.def_403 (or .def_402 .def_390))) (let ((.def_404 (= .def_403 .def_379))) (let ((.def_405 (not .def_404))) (let ((.def_406 (and .def_405 .def_359))) (let ((.def_407 (not .def_406))) (let ((.def_408 (and .def_407 .def_309))) (let ((.def_409 (and .def_408 .def_210))) (let ((.def_410 (not .def_409))) .def_410))))))))))))))))))))))))))))))))))))))))))))))))))))))))))))))))))))))))))))))))))))))))))))))))))))))))))))))))))))))))))))))))))))))))))))))))))))))))))))))))))))))))))))))))))))))))))))))))))))))))))))))))))))))))))))))))))))))))))))))))))))))))))))))))))))))))))))))))))))))))))))))))))))))))))))))))))))))))))))))))))))))))))))))))))))))))))))))))))))))))))))))))))))))))))))))))))))))))))))))))))))))))))))
(check-sat)
